benchmark/results/graph__10-1000-0.10-03_19/graph__10-1000-0.10-03_19_Quinton_Monolithic.lp
\ This file has been generated by DOcplex
\ ENCODING=ISO-8859-1
\Problem name: Quinton Monolithic

Maximize
 obj: tau
Subject To
 c1: tau - 0.000946969697 m_a0_proc_2 <= 0
 c2: y_a0_proc_2 - tau = 0
 c3: m_a0_proc_2 = 1
 c4: y_a0_proc_2 - m_a0_proc_2 <= 0
 c5: y_a0_proc_2 >= 0
 c6: tau - 0.001317523057 m_a1_proc_2 <= 0
 c7: y_a1_proc_2 - tau = 0
 c8: m_a1_proc_2 = 1
 c9: y_a1_proc_2 - m_a1_proc_2 <= 0
 c10: y_a1_proc_2 >= 0
 c11: tau - 0.000903342367 m_a2_proc_0 - 0.001315789474 m_a2_proc_1
      - 0.001587301587 m_a2_proc_2 <= 0
 c12: y_a2_proc_0 + y_a2_proc_1 + y_a2_proc_2 - tau = 0
 c13: m_a2_proc_0 + m_a2_proc_1 + m_a2_proc_2 = 1
 c14: y_a2_proc_0 - m_a2_proc_0 <= 0
 c15: y_a2_proc_0 >= 0
 c16: y_a2_proc_1 - m_a2_proc_1 <= 0
 c17: y_a2_proc_1 >= 0
 c18: y_a2_proc_2 - m_a2_proc_2 <= 0
 c19: y_a2_proc_2 >= 0
 c20: tau - 0.001148105626 m_a3_proc_0 - 0.001319261214 m_a3_proc_1
      - 0.001121076233 m_a3_proc_2 <= 0
 c21: y_a3_proc_0 + y_a3_proc_1 + y_a3_proc_2 - tau = 0
 c22: m_a3_proc_0 + m_a3_proc_1 + m_a3_proc_2 = 1
 c23: y_a3_proc_0 - m_a3_proc_0 <= 0
 c24: y_a3_proc_0 >= 0
 c25: y_a3_proc_1 - m_a3_proc_1 <= 0
 c26: y_a3_proc_1 >= 0
 c27: y_a3_proc_2 - m_a3_proc_2 <= 0
 c28: y_a3_proc_2 >= 0
 c29: tau - 0.000962463908 m_a4_proc_1 <= 0
 c30: y_a4_proc_1 - tau = 0
 c31: m_a4_proc_1 = 1
 c32: y_a4_proc_1 - m_a4_proc_1 <= 0
 c33: y_a4_proc_1 >= 0
 c34: tau - 0.000902527076 m_a5_proc_0 - 0.002439024390 m_a5_proc_1
      - 0.002155172414 m_a5_proc_2 <= 0
 c35: y_a5_proc_0 + y_a5_proc_1 + y_a5_proc_2 - tau = 0
 c36: m_a5_proc_0 + m_a5_proc_1 + m_a5_proc_2 = 1
 c37: y_a5_proc_0 - m_a5_proc_0 <= 0
 c38: y_a5_proc_0 >= 0
 c39: y_a5_proc_1 - m_a5_proc_1 <= 0
 c40: y_a5_proc_1 >= 0
 c41: y_a5_proc_2 - m_a5_proc_2 <= 0
 c42: y_a5_proc_2 >= 0
 c43: tau - 0.001027749229 m_a6_proc_0 - 0.001066098081 m_a6_proc_1
      - 0.001097694841 m_a6_proc_2 <= 0
 c44: y_a6_proc_0 + y_a6_proc_1 + y_a6_proc_2 - tau = 0
 c45: m_a6_proc_0 + m_a6_proc_1 + m_a6_proc_2 = 1
 c46: y_a6_proc_0 - m_a6_proc_0 <= 0
 c47: y_a6_proc_0 >= 0
 c48: y_a6_proc_1 - m_a6_proc_1 <= 0
 c49: y_a6_proc_1 >= 0
 c50: y_a6_proc_2 - m_a6_proc_2 <= 0
 c51: y_a6_proc_2 >= 0
 c52: tau - 0.000892060660 m_a7_proc_0 - 0.001267427123 m_a7_proc_2 <= 0
 c53: y_a7_proc_0 + y_a7_proc_2 - tau = 0
 c54: m_a7_proc_0 + m_a7_proc_2 = 1
 c55: y_a7_proc_0 - m_a7_proc_0 <= 0
 c56: y_a7_proc_0 >= 0
 c57: y_a7_proc_2 - m_a7_proc_2 <= 0
 c58: y_a7_proc_2 >= 0
 c59: tau - 0.001024590164 m_a8_proc_0 <= 0
 c60: y_a8_proc_0 - tau = 0
 c61: m_a8_proc_0 = 1
 c62: y_a8_proc_0 - m_a8_proc_0 <= 0
 c63: y_a8_proc_0 >= 0
 c64: tau - 0.001841620626 m_a9_proc_0 - 0.001077586207 m_a9_proc_1
      - 0.000873362445 m_a9_proc_2 <= 0
 c65: y_a9_proc_0 + y_a9_proc_1 + y_a9_proc_2 - tau = 0
 c66: m_a9_proc_0 + m_a9_proc_1 + m_a9_proc_2 = 1
 c67: y_a9_proc_0 - m_a9_proc_0 <= 0
 c68: y_a9_proc_0 >= 0
 c69: y_a9_proc_1 - m_a9_proc_1 <= 0
 c70: y_a9_proc_1 >= 0
 c71: y_a9_proc_2 - m_a9_proc_2 <= 0
 c72: y_a9_proc_2 >= 0
 c73: u_a1 - u_a0 - 1056 y_a0_proc_2 >= 0
 c74: u_a2 - u_a1 - 759 y_a1_proc_2 >= 0
 c75: u_a2 - u_a3 - 871 y_a3_proc_0 - 758 y_a3_proc_1 - 892 y_a3_proc_2 >= 0
 c76: u_a1 - u_a4 - 1039 y_a4_proc_1 >= 0
 c77: u_a1 - u_a5 - 1108 y_a5_proc_0 - 410 y_a5_proc_1 - 464 y_a5_proc_2 >= 0
 c78: u_a6 - u_a5 - 1108 y_a5_proc_0 - 410 y_a5_proc_1 - 464 y_a5_proc_2 >= -1
 c79: u_a4 - u_a7 - 1121 y_a7_proc_0 - 789 y_a7_proc_2 >= 0
 c80: u_a4 - u_a8 - 976 y_a8_proc_0 >= 0
 c81: u_a3 - u_a9 - 543 y_a9_proc_0 - 928 y_a9_proc_1 - 1145 y_a9_proc_2 >= -1
 c82: u_a7 - u_a6 - 973 y_a6_proc_0 - 938 y_a6_proc_1 - 911 y_a6_proc_2 >= 0
 c83: u_a5 - u_a6 - 973 y_a6_proc_0 - 938 y_a6_proc_1 - 911 y_a6_proc_2 >= 0
 c84: u_a9 - u_a2 - 1107 y_a2_proc_0 - 760 y_a2_proc_1 - 630 y_a2_proc_2 >= 0
 c85: u_a9 - u_a8 - 976 y_a8_proc_0 >= 0
 c86: u_a4 - u_a6 - 973 y_a6_proc_0 - 938 y_a6_proc_1 - 911 y_a6_proc_2 >= 0
 c87: - 1108 y_a5_proc_0 - 410 y_a5_proc_1 - 464 y_a5_proc_2 >= -1
 c88: u_a1 + K_a0_a1 - 1145 m_a0_proc_2 - 1145 m_a1_proc_2 - u_a0
      - 1056 y_a0_proc_2 >= -2290
 c89: K_a0_a1 + K_a1_a0 = 1
 c90: u_a0 + K_a1_a0 - 1145 m_a0_proc_2 - 1145 m_a1_proc_2 - u_a1
      - 759 y_a1_proc_2 >= -2290
 c91: K_a0_a1 + K_a1_a0 = 1
 c92: u_a2 + K_a0_a2 - 1145 m_a0_proc_2 - 1145 m_a2_proc_2 - u_a0
      - 1056 y_a0_proc_2 >= -2290
 c93: K_a0_a2 + K_a2_a0 = 1
 c94: u_a0 + K_a2_a0 - 1145 m_a0_proc_2 - 1145 m_a2_proc_2 - u_a2
      - 630 y_a2_proc_2 >= -2290
 c95: K_a0_a2 + K_a2_a0 = 1
 c96: u_a3 + K_a0_a3 - 1145 m_a0_proc_2 - 1145 m_a3_proc_2 - u_a0
      - 1056 y_a0_proc_2 >= -2290
 c97: K_a0_a3 + K_a3_a0 = 1
 c98: u_a0 + K_a3_a0 - 1145 m_a0_proc_2 - 1145 m_a3_proc_2 - u_a3
      - 892 y_a3_proc_2 >= -2290
 c99: K_a0_a3 + K_a3_a0 = 1
 c100: u_a5 + K_a0_a5 - 1145 m_a0_proc_2 - 1145 m_a5_proc_2 - u_a0
       - 1056 y_a0_proc_2 >= -2290
 c101: K_a0_a5 + K_a5_a0 = 1
 c102: u_a0 + K_a5_a0 - 1145 m_a0_proc_2 - 1145 m_a5_proc_2 - u_a5
       - 464 y_a5_proc_2 >= -2290
 c103: K_a0_a5 + K_a5_a0 = 1
 c104: u_a6 + K_a0_a6 - 1145 m_a0_proc_2 - 1145 m_a6_proc_2 - u_a0
       - 1056 y_a0_proc_2 >= -2290
 c105: K_a0_a6 + K_a6_a0 = 1
 c106: u_a0 + K_a6_a0 - 1145 m_a0_proc_2 - 1145 m_a6_proc_2 - u_a6
       - 911 y_a6_proc_2 >= -2290
 c107: K_a0_a6 + K_a6_a0 = 1
 c108: u_a7 + K_a0_a7 - 1145 m_a0_proc_2 - 1145 m_a7_proc_2 - u_a0
       - 1056 y_a0_proc_2 >= -2290
 c109: K_a0_a7 + K_a7_a0 = 1
 c110: u_a0 + K_a7_a0 - 1145 m_a0_proc_2 - 1145 m_a7_proc_2 - u_a7
       - 789 y_a7_proc_2 >= -2290
 c111: K_a0_a7 + K_a7_a0 = 1
 c112: u_a9 + K_a0_a9 - 1145 m_a0_proc_2 - 1145 m_a9_proc_2 - u_a0
       - 1056 y_a0_proc_2 >= -2290
 c113: K_a0_a9 + K_a9_a0 = 1
 c114: u_a0 + K_a9_a0 - 1145 m_a0_proc_2 - 1145 m_a9_proc_2 - u_a9
       - 1145 y_a9_proc_2 >= -2290
 c115: K_a0_a9 + K_a9_a0 = 1
 c116: u_a2 + K_a1_a2 - 1145 m_a1_proc_2 - 1145 m_a2_proc_2 - u_a1
       - 759 y_a1_proc_2 >= -2290
 c117: K_a1_a2 + K_a2_a1 = 1
 c118: u_a1 + K_a2_a1 - 1145 m_a1_proc_2 - 1145 m_a2_proc_2 - u_a2
       - 630 y_a2_proc_2 >= -2290
 c119: K_a1_a2 + K_a2_a1 = 1
 c120: u_a3 + K_a1_a3 - 1145 m_a1_proc_2 - 1145 m_a3_proc_2 - u_a1
       - 759 y_a1_proc_2 >= -2290
 c121: K_a1_a3 + K_a3_a1 = 1
 c122: u_a1 + K_a3_a1 - 1145 m_a1_proc_2 - 1145 m_a3_proc_2 - u_a3
       - 892 y_a3_proc_2 >= -2290
 c123: K_a1_a3 + K_a3_a1 = 1
 c124: u_a5 + K_a1_a5 - 1145 m_a1_proc_2 - 1145 m_a5_proc_2 - u_a1
       - 759 y_a1_proc_2 >= -2290
 c125: K_a1_a5 + K_a5_a1 = 1
 c126: u_a1 + K_a5_a1 - 1145 m_a1_proc_2 - 1145 m_a5_proc_2 - u_a5
       - 464 y_a5_proc_2 >= -2290
 c127: K_a1_a5 + K_a5_a1 = 1
 c128: u_a6 + K_a1_a6 - 1145 m_a1_proc_2 - 1145 m_a6_proc_2 - u_a1
       - 759 y_a1_proc_2 >= -2290
 c129: K_a1_a6 + K_a6_a1 = 1
 c130: u_a1 + K_a6_a1 - 1145 m_a1_proc_2 - 1145 m_a6_proc_2 - u_a6
       - 911 y_a6_proc_2 >= -2290
 c131: K_a1_a6 + K_a6_a1 = 1
 c132: u_a7 + K_a1_a7 - 1145 m_a1_proc_2 - 1145 m_a7_proc_2 - u_a1
       - 759 y_a1_proc_2 >= -2290
 c133: K_a1_a7 + K_a7_a1 = 1
 c134: u_a1 + K_a7_a1 - 1145 m_a1_proc_2 - 1145 m_a7_proc_2 - u_a7
       - 789 y_a7_proc_2 >= -2290
 c135: K_a1_a7 + K_a7_a1 = 1
 c136: u_a9 + K_a1_a9 - 1145 m_a1_proc_2 - 1145 m_a9_proc_2 - u_a1
       - 759 y_a1_proc_2 >= -2290
 c137: K_a1_a9 + K_a9_a1 = 1
 c138: u_a1 + K_a9_a1 - 1145 m_a1_proc_2 - 1145 m_a9_proc_2 - u_a9
       - 1145 y_a9_proc_2 >= -2290
 c139: K_a1_a9 + K_a9_a1 = 1
 c140: u_a3 + K_a2_a3 - 1145 m_a2_proc_2 - 1145 m_a3_proc_2 - u_a2
       - 630 y_a2_proc_2 >= -2290
 c141: u_a3 + K_a2_a3 - 1145 m_a2_proc_0 - 1145 m_a3_proc_0 - u_a2
       - 1107 y_a2_proc_0 >= -2290
 c142: u_a3 + K_a2_a3 - 1145 m_a2_proc_1 - 1145 m_a3_proc_1 - u_a2
       - 760 y_a2_proc_1 >= -2290
 c143: K_a2_a3 + K_a3_a2 = 1
 c144: u_a2 + K_a3_a2 - 1145 m_a2_proc_2 - 1145 m_a3_proc_2 - u_a3
       - 892 y_a3_proc_2 >= -2290
 c145: u_a2 + K_a3_a2 - 1145 m_a2_proc_0 - 1145 m_a3_proc_0 - u_a3
       - 871 y_a3_proc_0 >= -2290
 c146: u_a2 + K_a3_a2 - 1145 m_a2_proc_1 - 1145 m_a3_proc_1 - u_a3
       - 758 y_a3_proc_1 >= -2290
 c147: K_a2_a3 + K_a3_a2 = 1
 c148: u_a4 + K_a2_a4 - 1145 m_a2_proc_1 - 1145 m_a4_proc_1 - u_a2
       - 760 y_a2_proc_1 >= -2290
 c149: K_a2_a4 + K_a4_a2 = 1
 c150: u_a2 + K_a4_a2 - 1145 m_a2_proc_1 - 1145 m_a4_proc_1 - u_a4
       - 1039 y_a4_proc_1 >= -2290
 c151: K_a2_a4 + K_a4_a2 = 1
 c152: u_a5 + K_a2_a5 - 1145 m_a2_proc_2 - 1145 m_a5_proc_2 - u_a2
       - 630 y_a2_proc_2 >= -2290
 c153: u_a5 + K_a2_a5 - 1145 m_a2_proc_0 - 1145 m_a5_proc_0 - u_a2
       - 1107 y_a2_proc_0 >= -2290
 c154: u_a5 + K_a2_a5 - 1145 m_a2_proc_1 - 1145 m_a5_proc_1 - u_a2
       - 760 y_a2_proc_1 >= -2290
 c155: K_a2_a5 + K_a5_a2 = 1
 c156: u_a2 + K_a5_a2 - 1145 m_a2_proc_2 - 1145 m_a5_proc_2 - u_a5
       - 464 y_a5_proc_2 >= -2290
 c157: u_a2 + K_a5_a2 - 1145 m_a2_proc_0 - 1145 m_a5_proc_0 - u_a5
       - 1108 y_a5_proc_0 >= -2290
 c158: u_a2 + K_a5_a2 - 1145 m_a2_proc_1 - 1145 m_a5_proc_1 - u_a5
       - 410 y_a5_proc_1 >= -2290
 c159: K_a2_a5 + K_a5_a2 = 1
 c160: u_a6 + K_a2_a6 - 1145 m_a2_proc_2 - 1145 m_a6_proc_2 - u_a2
       - 630 y_a2_proc_2 >= -2290
 c161: u_a6 + K_a2_a6 - 1145 m_a2_proc_0 - 1145 m_a6_proc_0 - u_a2
       - 1107 y_a2_proc_0 >= -2290
 c162: u_a6 + K_a2_a6 - 1145 m_a2_proc_1 - 1145 m_a6_proc_1 - u_a2
       - 760 y_a2_proc_1 >= -2290
 c163: K_a2_a6 + K_a6_a2 = 1
 c164: u_a2 + K_a6_a2 - 1145 m_a2_proc_2 - 1145 m_a6_proc_2 - u_a6
       - 911 y_a6_proc_2 >= -2290
 c165: u_a2 + K_a6_a2 - 1145 m_a2_proc_0 - 1145 m_a6_proc_0 - u_a6
       - 973 y_a6_proc_0 >= -2290
 c166: u_a2 + K_a6_a2 - 1145 m_a2_proc_1 - 1145 m_a6_proc_1 - u_a6
       - 938 y_a6_proc_1 >= -2290
 c167: K_a2_a6 + K_a6_a2 = 1
 c168: u_a7 + K_a2_a7 - 1145 m_a2_proc_2 - 1145 m_a7_proc_2 - u_a2
       - 630 y_a2_proc_2 >= -2290
 c169: u_a7 + K_a2_a7 - 1145 m_a2_proc_0 - 1145 m_a7_proc_0 - u_a2
       - 1107 y_a2_proc_0 >= -2290
 c170: K_a2_a7 + K_a7_a2 = 1
 c171: u_a2 + K_a7_a2 - 1145 m_a2_proc_2 - 1145 m_a7_proc_2 - u_a7
       - 789 y_a7_proc_2 >= -2290
 c172: u_a2 + K_a7_a2 - 1145 m_a2_proc_0 - 1145 m_a7_proc_0 - u_a7
       - 1121 y_a7_proc_0 >= -2290
 c173: K_a2_a7 + K_a7_a2 = 1
 c174: u_a8 + K_a2_a8 - 1145 m_a2_proc_0 - 1145 m_a8_proc_0 - u_a2
       - 1107 y_a2_proc_0 >= -2290
 c175: K_a2_a8 + K_a8_a2 = 1
 c176: u_a2 + K_a8_a2 - 1145 m_a2_proc_0 - 1145 m_a8_proc_0 - u_a8
       - 976 y_a8_proc_0 >= -2290
 c177: K_a2_a8 + K_a8_a2 = 1
 c178: u_a9 + K_a2_a9 - 1145 m_a2_proc_2 - 1145 m_a9_proc_2 - u_a2
       - 630 y_a2_proc_2 >= -2290
 c179: u_a9 + K_a2_a9 - 1145 m_a2_proc_0 - 1145 m_a9_proc_0 - u_a2
       - 1107 y_a2_proc_0 >= -2290
 c180: u_a9 + K_a2_a9 - 1145 m_a2_proc_1 - 1145 m_a9_proc_1 - u_a2
       - 760 y_a2_proc_1 >= -2290
 c181: K_a2_a9 + K_a9_a2 = 1
 c182: u_a2 + K_a9_a2 - 1145 m_a2_proc_2 - 1145 m_a9_proc_2 - u_a9
       - 1145 y_a9_proc_2 >= -2290
 c183: u_a2 + K_a9_a2 - 1145 m_a2_proc_0 - 1145 m_a9_proc_0 - u_a9
       - 543 y_a9_proc_0 >= -2290
 c184: u_a2 + K_a9_a2 - 1145 m_a2_proc_1 - 1145 m_a9_proc_1 - u_a9
       - 928 y_a9_proc_1 >= -2290
 c185: K_a2_a9 + K_a9_a2 = 1
 c186: u_a4 + K_a3_a4 - 1145 m_a3_proc_1 - 1145 m_a4_proc_1 - u_a3
       - 758 y_a3_proc_1 >= -2290
 c187: K_a3_a4 + K_a4_a3 = 1
 c188: u_a3 + K_a4_a3 - 1145 m_a3_proc_1 - 1145 m_a4_proc_1 - u_a4
       - 1039 y_a4_proc_1 >= -2290
 c189: K_a3_a4 + K_a4_a3 = 1
 c190: u_a5 + K_a3_a5 - 1145 m_a3_proc_2 - 1145 m_a5_proc_2 - u_a3
       - 892 y_a3_proc_2 >= -2290
 c191: u_a5 + K_a3_a5 - 1145 m_a3_proc_0 - 1145 m_a5_proc_0 - u_a3
       - 871 y_a3_proc_0 >= -2290
 c192: u_a5 + K_a3_a5 - 1145 m_a3_proc_1 - 1145 m_a5_proc_1 - u_a3
       - 758 y_a3_proc_1 >= -2290
 c193: K_a3_a5 + K_a5_a3 = 1
 c194: u_a3 + K_a5_a3 - 1145 m_a3_proc_2 - 1145 m_a5_proc_2 - u_a5
       - 464 y_a5_proc_2 >= -2290
 c195: u_a3 + K_a5_a3 - 1145 m_a3_proc_0 - 1145 m_a5_proc_0 - u_a5
       - 1108 y_a5_proc_0 >= -2290
 c196: u_a3 + K_a5_a3 - 1145 m_a3_proc_1 - 1145 m_a5_proc_1 - u_a5
       - 410 y_a5_proc_1 >= -2290
 c197: K_a3_a5 + K_a5_a3 = 1
 c198: u_a6 + K_a3_a6 - 1145 m_a3_proc_2 - 1145 m_a6_proc_2 - u_a3
       - 892 y_a3_proc_2 >= -2290
 c199: u_a6 + K_a3_a6 - 1145 m_a3_proc_0 - 1145 m_a6_proc_0 - u_a3
       - 871 y_a3_proc_0 >= -2290
 c200: u_a6 + K_a3_a6 - 1145 m_a3_proc_1 - 1145 m_a6_proc_1 - u_a3
       - 758 y_a3_proc_1 >= -2290
 c201: K_a3_a6 + K_a6_a3 = 1
 c202: u_a3 + K_a6_a3 - 1145 m_a3_proc_2 - 1145 m_a6_proc_2 - u_a6
       - 911 y_a6_proc_2 >= -2290
 c203: u_a3 + K_a6_a3 - 1145 m_a3_proc_0 - 1145 m_a6_proc_0 - u_a6
       - 973 y_a6_proc_0 >= -2290
 c204: u_a3 + K_a6_a3 - 1145 m_a3_proc_1 - 1145 m_a6_proc_1 - u_a6
       - 938 y_a6_proc_1 >= -2290
 c205: K_a3_a6 + K_a6_a3 = 1
 c206: u_a7 + K_a3_a7 - 1145 m_a3_proc_2 - 1145 m_a7_proc_2 - u_a3
       - 892 y_a3_proc_2 >= -2290
 c207: u_a7 + K_a3_a7 - 1145 m_a3_proc_0 - 1145 m_a7_proc_0 - u_a3
       - 871 y_a3_proc_0 >= -2290
 c208: K_a3_a7 + K_a7_a3 = 1
 c209: u_a3 + K_a7_a3 - 1145 m_a3_proc_2 - 1145 m_a7_proc_2 - u_a7
       - 789 y_a7_proc_2 >= -2290
 c210: u_a3 + K_a7_a3 - 1145 m_a3_proc_0 - 1145 m_a7_proc_0 - u_a7
       - 1121 y_a7_proc_0 >= -2290
 c211: K_a3_a7 + K_a7_a3 = 1
 c212: u_a8 + K_a3_a8 - 1145 m_a3_proc_0 - 1145 m_a8_proc_0 - u_a3
       - 871 y_a3_proc_0 >= -2290
 c213: K_a3_a8 + K_a8_a3 = 1
 c214: u_a3 + K_a8_a3 - 1145 m_a3_proc_0 - 1145 m_a8_proc_0 - u_a8
       - 976 y_a8_proc_0 >= -2290
 c215: K_a3_a8 + K_a8_a3 = 1
 c216: u_a9 + K_a3_a9 - 1145 m_a3_proc_2 - 1145 m_a9_proc_2 - u_a3
       - 892 y_a3_proc_2 >= -2290
 c217: u_a9 + K_a3_a9 - 1145 m_a3_proc_0 - 1145 m_a9_proc_0 - u_a3
       - 871 y_a3_proc_0 >= -2290
 c218: u_a9 + K_a3_a9 - 1145 m_a3_proc_1 - 1145 m_a9_proc_1 - u_a3
       - 758 y_a3_proc_1 >= -2290
 c219: K_a3_a9 + K_a9_a3 = 1
 c220: u_a3 + K_a9_a3 - 1145 m_a3_proc_2 - 1145 m_a9_proc_2 - u_a9
       - 1145 y_a9_proc_2 >= -2290
 c221: u_a3 + K_a9_a3 - 1145 m_a3_proc_0 - 1145 m_a9_proc_0 - u_a9
       - 543 y_a9_proc_0 >= -2290
 c222: u_a3 + K_a9_a3 - 1145 m_a3_proc_1 - 1145 m_a9_proc_1 - u_a9
       - 928 y_a9_proc_1 >= -2290
 c223: K_a3_a9 + K_a9_a3 = 1
 c224: u_a5 + K_a4_a5 - 1145 m_a4_proc_1 - 1145 m_a5_proc_1 - u_a4
       - 1039 y_a4_proc_1 >= -2290
 c225: K_a4_a5 + K_a5_a4 = 1
 c226: u_a4 + K_a5_a4 - 1145 m_a4_proc_1 - 1145 m_a5_proc_1 - u_a5
       - 410 y_a5_proc_1 >= -2290
 c227: K_a4_a5 + K_a5_a4 = 1
 c228: u_a6 + K_a4_a6 - 1145 m_a4_proc_1 - 1145 m_a6_proc_1 - u_a4
       - 1039 y_a4_proc_1 >= -2290
 c229: K_a4_a6 + K_a6_a4 = 1
 c230: u_a4 + K_a6_a4 - 1145 m_a4_proc_1 - 1145 m_a6_proc_1 - u_a6
       - 938 y_a6_proc_1 >= -2290
 c231: K_a4_a6 + K_a6_a4 = 1
 c232: u_a9 + K_a4_a9 - 1145 m_a4_proc_1 - 1145 m_a9_proc_1 - u_a4
       - 1039 y_a4_proc_1 >= -2290
 c233: K_a4_a9 + K_a9_a4 = 1
 c234: u_a4 + K_a9_a4 - 1145 m_a4_proc_1 - 1145 m_a9_proc_1 - u_a9
       - 928 y_a9_proc_1 >= -2290
 c235: K_a4_a9 + K_a9_a4 = 1
 c236: u_a6 + K_a5_a6 - 1145 m_a5_proc_2 - 1145 m_a6_proc_2 - u_a5
       - 464 y_a5_proc_2 >= -2290
 c237: u_a6 + K_a5_a6 - 1145 m_a5_proc_0 - 1145 m_a6_proc_0 - u_a5
       - 1108 y_a5_proc_0 >= -2290
 c238: u_a6 + K_a5_a6 - 1145 m_a5_proc_1 - 1145 m_a6_proc_1 - u_a5
       - 410 y_a5_proc_1 >= -2290
 c239: K_a5_a6 + K_a6_a5 = 1
 c240: u_a5 + K_a6_a5 - 1145 m_a5_proc_2 - 1145 m_a6_proc_2 - u_a6
       - 911 y_a6_proc_2 >= -2290
 c241: u_a5 + K_a6_a5 - 1145 m_a5_proc_0 - 1145 m_a6_proc_0 - u_a6
       - 973 y_a6_proc_0 >= -2290
 c242: u_a5 + K_a6_a5 - 1145 m_a5_proc_1 - 1145 m_a6_proc_1 - u_a6
       - 938 y_a6_proc_1 >= -2290
 c243: K_a5_a6 + K_a6_a5 = 1
 c244: u_a7 + K_a5_a7 - 1145 m_a5_proc_2 - 1145 m_a7_proc_2 - u_a5
       - 464 y_a5_proc_2 >= -2290
 c245: u_a7 + K_a5_a7 - 1145 m_a5_proc_0 - 1145 m_a7_proc_0 - u_a5
       - 1108 y_a5_proc_0 >= -2290
 c246: K_a5_a7 + K_a7_a5 = 1
 c247: u_a5 + K_a7_a5 - 1145 m_a5_proc_2 - 1145 m_a7_proc_2 - u_a7
       - 789 y_a7_proc_2 >= -2290
 c248: u_a5 + K_a7_a5 - 1145 m_a5_proc_0 - 1145 m_a7_proc_0 - u_a7
       - 1121 y_a7_proc_0 >= -2290
 c249: K_a5_a7 + K_a7_a5 = 1
 c250: u_a8 + K_a5_a8 - 1145 m_a5_proc_0 - 1145 m_a8_proc_0 - u_a5
       - 1108 y_a5_proc_0 >= -2290
 c251: K_a5_a8 + K_a8_a5 = 1
 c252: u_a5 + K_a8_a5 - 1145 m_a5_proc_0 - 1145 m_a8_proc_0 - u_a8
       - 976 y_a8_proc_0 >= -2290
 c253: K_a5_a8 + K_a8_a5 = 1
 c254: u_a9 + K_a5_a9 - 1145 m_a5_proc_2 - 1145 m_a9_proc_2 - u_a5
       - 464 y_a5_proc_2 >= -2290
 c255: u_a9 + K_a5_a9 - 1145 m_a5_proc_0 - 1145 m_a9_proc_0 - u_a5
       - 1108 y_a5_proc_0 >= -2290
 c256: u_a9 + K_a5_a9 - 1145 m_a5_proc_1 - 1145 m_a9_proc_1 - u_a5
       - 410 y_a5_proc_1 >= -2290
 c257: K_a5_a9 + K_a9_a5 = 1
 c258: u_a5 + K_a9_a5 - 1145 m_a5_proc_2 - 1145 m_a9_proc_2 - u_a9
       - 1145 y_a9_proc_2 >= -2290
 c259: u_a5 + K_a9_a5 - 1145 m_a5_proc_0 - 1145 m_a9_proc_0 - u_a9
       - 543 y_a9_proc_0 >= -2290
 c260: u_a5 + K_a9_a5 - 1145 m_a5_proc_1 - 1145 m_a9_proc_1 - u_a9
       - 928 y_a9_proc_1 >= -2290
 c261: K_a5_a9 + K_a9_a5 = 1
 c262: u_a7 + K_a6_a7 - 1145 m_a6_proc_2 - 1145 m_a7_proc_2 - u_a6
       - 911 y_a6_proc_2 >= -2290
 c263: u_a7 + K_a6_a7 - 1145 m_a6_proc_0 - 1145 m_a7_proc_0 - u_a6
       - 973 y_a6_proc_0 >= -2290
 c264: K_a6_a7 + K_a7_a6 = 1
 c265: u_a6 + K_a7_a6 - 1145 m_a6_proc_2 - 1145 m_a7_proc_2 - u_a7
       - 789 y_a7_proc_2 >= -2290
 c266: u_a6 + K_a7_a6 - 1145 m_a6_proc_0 - 1145 m_a7_proc_0 - u_a7
       - 1121 y_a7_proc_0 >= -2290
 c267: K_a6_a7 + K_a7_a6 = 1
 c268: u_a8 + K_a6_a8 - 1145 m_a6_proc_0 - 1145 m_a8_proc_0 - u_a6
       - 973 y_a6_proc_0 >= -2290
 c269: K_a6_a8 + K_a8_a6 = 1
 c270: u_a6 + K_a8_a6 - 1145 m_a6_proc_0 - 1145 m_a8_proc_0 - u_a8
       - 976 y_a8_proc_0 >= -2290
 c271: K_a6_a8 + K_a8_a6 = 1
 c272: u_a9 + K_a6_a9 - 1145 m_a6_proc_2 - 1145 m_a9_proc_2 - u_a6
       - 911 y_a6_proc_2 >= -2290
 c273: u_a9 + K_a6_a9 - 1145 m_a6_proc_0 - 1145 m_a9_proc_0 - u_a6
       - 973 y_a6_proc_0 >= -2290
 c274: u_a9 + K_a6_a9 - 1145 m_a6_proc_1 - 1145 m_a9_proc_1 - u_a6
       - 938 y_a6_proc_1 >= -2290
 c275: K_a6_a9 + K_a9_a6 = 1
 c276: u_a6 + K_a9_a6 - 1145 m_a6_proc_2 - 1145 m_a9_proc_2 - u_a9
       - 1145 y_a9_proc_2 >= -2290
 c277: u_a6 + K_a9_a6 - 1145 m_a6_proc_0 - 1145 m_a9_proc_0 - u_a9
       - 543 y_a9_proc_0 >= -2290
 c278: u_a6 + K_a9_a6 - 1145 m_a6_proc_1 - 1145 m_a9_proc_1 - u_a9
       - 928 y_a9_proc_1 >= -2290
 c279: K_a6_a9 + K_a9_a6 = 1
 c280: u_a8 + K_a7_a8 - 1145 m_a7_proc_0 - 1145 m_a8_proc_0 - u_a7
       - 1121 y_a7_proc_0 >= -2290
 c281: K_a7_a8 + K_a8_a7 = 1
 c282: u_a7 + K_a8_a7 - 1145 m_a7_proc_0 - 1145 m_a8_proc_0 - u_a8
       - 976 y_a8_proc_0 >= -2290
 c283: K_a7_a8 + K_a8_a7 = 1
 c284: u_a9 + K_a7_a9 - 1145 m_a7_proc_2 - 1145 m_a9_proc_2 - u_a7
       - 789 y_a7_proc_2 >= -2290
 c285: u_a9 + K_a7_a9 - 1145 m_a7_proc_0 - 1145 m_a9_proc_0 - u_a7
       - 1121 y_a7_proc_0 >= -2290
 c286: K_a7_a9 + K_a9_a7 = 1
 c287: u_a7 + K_a9_a7 - 1145 m_a7_proc_2 - 1145 m_a9_proc_2 - u_a9
       - 1145 y_a9_proc_2 >= -2290
 c288: u_a7 + K_a9_a7 - 1145 m_a7_proc_0 - 1145 m_a9_proc_0 - u_a9
       - 543 y_a9_proc_0 >= -2290
 c289: K_a7_a9 + K_a9_a7 = 1
 c290: u_a9 + K_a8_a9 - 1145 m_a8_proc_0 - 1145 m_a9_proc_0 - u_a8
       - 976 y_a8_proc_0 >= -2290
 c291: K_a8_a9 + K_a9_a8 = 1
 c292: u_a8 + K_a9_a8 - 1145 m_a8_proc_0 - 1145 m_a9_proc_0 - u_a9
       - 543 y_a9_proc_0 >= -2290
 c293: K_a8_a9 + K_a9_a8 = 1

Bounds
       K_a0_a1 Free
       K_a0_a2 Free
       K_a0_a3 Free
       K_a0_a4 Free
       K_a0_a5 Free
       K_a0_a6 Free
       K_a0_a7 Free
       K_a0_a8 Free
       K_a0_a9 Free
       K_a1_a0 Free
       K_a1_a2 Free
       K_a1_a3 Free
       K_a1_a4 Free
       K_a1_a5 Free
       K_a1_a6 Free
       K_a1_a7 Free
       K_a1_a8 Free
       K_a1_a9 Free
       K_a2_a0 Free
       K_a2_a1 Free
       K_a2_a3 Free
       K_a2_a4 Free
       K_a2_a5 Free
       K_a2_a6 Free
       K_a2_a7 Free
       K_a2_a8 Free
       K_a2_a9 Free
       K_a3_a0 Free
       K_a3_a1 Free
       K_a3_a2 Free
       K_a3_a4 Free
       K_a3_a5 Free
       K_a3_a6 Free
       K_a3_a7 Free
       K_a3_a8 Free
       K_a3_a9 Free
       K_a4_a0 Free
       K_a4_a1 Free
       K_a4_a2 Free
       K_a4_a3 Free
       K_a4_a5 Free
       K_a4_a6 Free
       K_a4_a7 Free
       K_a4_a8 Free
       K_a4_a9 Free
       K_a5_a0 Free
       K_a5_a1 Free
       K_a5_a2 Free
       K_a5_a3 Free
       K_a5_a4 Free
       K_a5_a6 Free
       K_a5_a7 Free
       K_a5_a8 Free
       K_a5_a9 Free
       K_a6_a0 Free
       K_a6_a1 Free
       K_a6_a2 Free
       K_a6_a3 Free
       K_a6_a4 Free
       K_a6_a5 Free
       K_a6_a7 Free
       K_a6_a8 Free
       K_a6_a9 Free
       K_a7_a0 Free
       K_a7_a1 Free
       K_a7_a2 Free
       K_a7_a3 Free
       K_a7_a4 Free
       K_a7_a5 Free
       K_a7_a6 Free
       K_a7_a8 Free
       K_a7_a9 Free
       K_a8_a0 Free
       K_a8_a1 Free
       K_a8_a2 Free
       K_a8_a3 Free
       K_a8_a4 Free
       K_a8_a5 Free
       K_a8_a6 Free
       K_a8_a7 Free
       K_a8_a9 Free
       K_a9_a0 Free
       K_a9_a1 Free
       K_a9_a2 Free
       K_a9_a3 Free
       K_a9_a4 Free
       K_a9_a5 Free
       K_a9_a6 Free
       K_a9_a7 Free
       K_a9_a8 Free
 0 <= m_a0_proc_2 <= 1
 0 <= m_a1_proc_2 <= 1
 0 <= m_a2_proc_0 <= 1
 0 <= m_a2_proc_1 <= 1
 0 <= m_a2_proc_2 <= 1
 0 <= m_a3_proc_0 <= 1
 0 <= m_a3_proc_1 <= 1
 0 <= m_a3_proc_2 <= 1
 0 <= m_a4_proc_1 <= 1
 0 <= m_a5_proc_0 <= 1
 0 <= m_a5_proc_1 <= 1
 0 <= m_a5_proc_2 <= 1
 0 <= m_a6_proc_0 <= 1
 0 <= m_a6_proc_1 <= 1
 0 <= m_a6_proc_2 <= 1
 0 <= m_a7_proc_0 <= 1
 0 <= m_a7_proc_2 <= 1
 0 <= m_a8_proc_0 <= 1
 0 <= m_a9_proc_0 <= 1
 0 <= m_a9_proc_1 <= 1
 0 <= m_a9_proc_2 <= 1

Binaries
 m_a0_proc_2 m_a1_proc_2 m_a2_proc_0 m_a2_proc_1 m_a2_proc_2 m_a3_proc_0
 m_a3_proc_1 m_a3_proc_2 m_a4_proc_1 m_a5_proc_0 m_a5_proc_1 m_a5_proc_2
 m_a6_proc_0 m_a6_proc_1 m_a6_proc_2 m_a7_proc_0 m_a7_proc_2 m_a8_proc_0
 m_a9_proc_0 m_a9_proc_1 m_a9_proc_2

Generals
 K_a0_a1 K_a0_a2 K_a0_a3 K_a0_a4 K_a0_a5 K_a0_a6 K_a0_a7 K_a0_a8 K_a0_a9 K_a1_a0
 K_a1_a2 K_a1_a3 K_a1_a4 K_a1_a5 K_a1_a6 K_a1_a7 K_a1_a8 K_a1_a9 K_a2_a0 K_a2_a1
 K_a2_a3 K_a2_a4 K_a2_a5 K_a2_a6 K_a2_a7 K_a2_a8 K_a2_a9 K_a3_a0 K_a3_a1 K_a3_a2
 K_a3_a4 K_a3_a5 K_a3_a6 K_a3_a7 K_a3_a8 K_a3_a9 K_a4_a0 K_a4_a1 K_a4_a2 K_a4_a3
 K_a4_a5 K_a4_a6 K_a4_a7 K_a4_a8 K_a4_a9 K_a5_a0 K_a5_a1 K_a5_a2 K_a5_a3 K_a5_a4
 K_a5_a6 K_a5_a7 K_a5_a8 K_a5_a9 K_a6_a0 K_a6_a1 K_a6_a2 K_a6_a3 K_a6_a4 K_a6_a5
 K_a6_a7 K_a6_a8 K_a6_a9 K_a7_a0 K_a7_a1 K_a7_a2 K_a7_a3 K_a7_a4 K_a7_a5 K_a7_a6
 K_a7_a8 K_a7_a9 K_a8_a0 K_a8_a1 K_a8_a2 K_a8_a3 K_a8_a4 K_a8_a5 K_a8_a6 K_a8_a7
 K_a8_a9 K_a9_a0 K_a9_a1 K_a9_a2 K_a9_a3 K_a9_a4 K_a9_a5 K_a9_a6 K_a9_a7 K_a9_a8
End
