benchmark/results/graph__10-1000-0.10-03_19/graph__10-1000-0.10-03_19_Quinton_Monolithic.txt
solution for: Quinton Monolithic
objective: 0.000337041
status: FEASIBLE_SOLUTION(1)
u_a0=1.255
u_a1=4.000
u_a2=4.255
u_a3=4.000
u_a4=3.512
u_a5=2.862
u_a6=2.329
u_a7=2.657
u_a9=4.657
tau=0.000
K_a0_a1=-2
K_a0_a2=-1147
K_a0_a3=-1147
K_a0_a5=-1145
K_a0_a6=-1145
K_a0_a7=-1
K_a0_a9=-1148
K_a1_a0=3
K_a1_a2=-1145
K_a1_a3=-1144
K_a1_a5=-1143
K_a1_a6=-1143
K_a1_a7=2
K_a1_a9=-1145
K_a2_a0=1148
K_a2_a1=1146
K_a2_a3=1
K_a2_a4=1
K_a2_a5=2
K_a2_a6=-1142
K_a2_a7=-1143
K_a2_a8=-1140
K_a2_a9=1
K_a3_a0=1148
K_a3_a1=1145
K_a3_a4=1
K_a3_a5=2
K_a3_a6=-1143
K_a3_a7=1
K_a3_a8=-1141
K_a3_a9=1145
K_a4_a5=1
K_a4_a6=-1143
K_a4_a9=-1145
K_a5_a0=1146
K_a5_a1=1144
K_a5_a2=-1
K_a5_a3=-1
K_a5_a6=1
K_a5_a7=1
K_a5_a8=-1142
K_a5_a9=1144
K_a6_a0=1146
K_a6_a1=1144
K_a6_a2=1143
K_a6_a3=1144
K_a6_a4=1144
K_a6_a7=1
K_a6_a8=3
K_a6_a9=-2
K_a7_a0=2
K_a7_a1=-1
K_a7_a2=1144
K_a7_a8=-1142
K_a7_a9=1143
K_a8_a2=1141
K_a8_a3=1142
K_a8_a5=1143
K_a8_a6=-2
K_a8_a7=1143
K_a8_a9=-4
K_a9_a0=1149
K_a9_a1=1146
K_a9_a3=-1144
K_a9_a4=1146
K_a9_a5=-1143
K_a9_a6=3
K_a9_a7=-1142
K_a9_a8=5
m_a0_proc_2=1
m_a1_proc_2=1
m_a2_proc_1=1
m_a3_proc_1=1
m_a4_proc_1=1
m_a5_proc_1=1
m_a6_proc_0=1
m_a7_proc_2=1
m_a8_proc_0=1
m_a9_proc_0=1
y_a0_proc_2=0.000
y_a1_proc_2=0.000
y_a2_proc_1=0.000
y_a3_proc_1=0.000
y_a4_proc_1=0.000
y_a5_proc_1=0.000
y_a6_proc_0=0.000
y_a7_proc_2=0.000
y_a8_proc_0=0.000
y_a9_proc_0=0.000
